(set-info :smt-lib-version 2.6)
(set-logic QF_AX)
(set-info :source |
Benchmarks used in the followin paper:
Big proof engines as little proof engines: new results on rewrite-based satisfiability procedure
Alessandro Armando, Maria Paola Bonacina, Silvio Ranise, Stephan Schulz. 
PDPAR'05
http://www.ai.dist.unige.it/pdpar05/


|)
(set-info :category "crafted")
(set-info :status sat)
(declare-sort Index 0)
(declare-sort Element 0)
(declare-fun a_278 () (Array Index Element))
(declare-fun a_279 () (Array Index Element))
(declare-fun a_280 () (Array Index Element))
(declare-fun a_281 () (Array Index Element))
(declare-fun a_282 () (Array Index Element))
(declare-fun a_283 () (Array Index Element))
(declare-fun a_284 () (Array Index Element))
(declare-fun a_285 () (Array Index Element))
(declare-fun a_286 () (Array Index Element))
(declare-fun a_287 () (Array Index Element))
(declare-fun a_288 () (Array Index Element))
(declare-fun a_289 () (Array Index Element))
(declare-fun a_290 () (Array Index Element))
(declare-fun a_291 () (Array Index Element))
(declare-fun a_292 () (Array Index Element))
(declare-fun a_293 () (Array Index Element))
(declare-fun a_294 () (Array Index Element))
(declare-fun a_295 () (Array Index Element))
(declare-fun a_296 () (Array Index Element))
(declare-fun a_297 () (Array Index Element))
(declare-fun a1 () (Array Index Element))
(declare-fun e1 () Element)
(declare-fun e10 () Element)
(declare-fun e2 () Element)
(declare-fun e3 () Element)
(declare-fun e4 () Element)
(declare-fun e5 () Element)
(declare-fun e6 () Element)
(declare-fun e7 () Element)
(declare-fun e8 () Element)
(declare-fun e9 () Element)
(declare-fun i1 () Index)
(declare-fun i10 () Index)
(declare-fun i2 () Index)
(declare-fun i3 () Index)
(declare-fun i4 () Index)
(declare-fun i5 () Index)
(declare-fun i6 () Index)
(declare-fun i7 () Index)
(declare-fun i8 () Index)
(declare-fun i9 () Index)
(assert (= a_278 (store a1 i1 e1)))
(assert (= a_279 (store a_278 i2 e2)))
(assert (= a_280 (store a_279 i3 e3)))
(assert (= a_281 (store a_280 i4 e4)))
(assert (= a_282 (store a_281 i5 e5)))
(assert (= a_283 (store a_282 i6 e6)))
(assert (= a_284 (store a_283 i7 e7)))
(assert (= a_285 (store a_284 i8 e8)))
(assert (= a_286 (store a_285 i9 e9)))
(assert (= a_287 (store a_286 i1 e1)))
(assert (= a_288 (store a1 i10 e10)))
(assert (= a_289 (store a_288 i6 e6)))
(assert (= a_290 (store a_289 i9 e9)))
(assert (= a_291 (store a_290 i7 e7)))
(assert (= a_292 (store a_291 i3 e3)))
(assert (= a_293 (store a_292 i4 e4)))
(assert (= a_294 (store a_293 i5 e5)))
(assert (= a_295 (store a_294 i2 e2)))
(assert (= a_296 (store a_295 i1 e1)))
(assert (= a_297 (store a_296 i8 e8)))
(assert (not (= i9 i10)))
(assert (not (= i8 i10)))
(assert (not (= i8 i9)))
(assert (not (= i7 i10)))
(assert (not (= i7 i9)))
(assert (not (= i7 i8)))
(assert (not (= i6 i10)))
(assert (not (= i6 i9)))
(assert (not (= i6 i8)))
(assert (not (= i6 i7)))
(assert (not (= i5 i10)))
(assert (not (= i5 i9)))
(assert (not (= i5 i8)))
(assert (not (= i5 i7)))
(assert (not (= i5 i6)))
(assert (not (= i4 i10)))
(assert (not (= i4 i9)))
(assert (not (= i4 i8)))
(assert (not (= i4 i7)))
(assert (not (= i4 i6)))
(assert (not (= i4 i5)))
(assert (not (= i3 i10)))
(assert (not (= i3 i9)))
(assert (not (= i3 i8)))
(assert (not (= i3 i7)))
(assert (not (= i3 i6)))
(assert (not (= i3 i5)))
(assert (not (= i3 i4)))
(assert (not (= i2 i10)))
(assert (not (= i2 i9)))
(assert (not (= i2 i8)))
(assert (not (= i2 i7)))
(assert (not (= i2 i6)))
(assert (not (= i2 i5)))
(assert (not (= i2 i4)))
(assert (not (= i2 i3)))
(assert (not (= i1 i10)))
(assert (not (= i1 i9)))
(assert (not (= i1 i8)))
(assert (not (= i1 i7)))
(assert (not (= i1 i6)))
(assert (not (= i1 i5)))
(assert (not (= i1 i4)))
(assert (not (= i1 i3)))
(assert (not (= i1 i2)))
(assert (not (= a_287 a_297)))
(check-sat)
(exit)
